decision_x1=[0,2];
decision_x2=[0,2];
decision_x3=[0,2];
decision_x4=[0,2];
decision_x5=[0,2];
decision_x6=[0,2];
decision_x7=[0,2];
decision_x8=[0,2];
decision_x9=[0,2];
decision_x10=[0,2];
random_y1=[0,2];
random_y2=[0,2];
random_y3=[0,2];
random_y4=[0,2];
random_y5=[0,2];
constraint_x2_x1=[
0,0,9.1|
0,1,5.8|
0,2,6.1|
1,0,6.6|
1,1,7.3|
1,2,3.4|
2,0,10|
2,1,5.8|
2,2,2.3|
];
constraint_x4_x1=[
0,0,2.1|
0,1,0.56|
0,2,0.14|
1,0,0.28|
1,1,8.5|
1,2,0.99|
2,0,8.9|
2,1,8.8|
2,2,0.067|
];
constraint_x4_x2=[
0,0,6.3|
0,1,5.3|
0,2,4.8|
1,0,5.7|
1,1,7.2|
1,2,1.1|
2,0,5.5|
2,1,4.9|
2,2,4.7|
];
constraint_x5_x2=[
0,0,9.9|
0,1,4.8|
0,2,5.7|
1,0,7.9|
1,1,3.3|
1,2,8.9|
2,0,8.9|
2,1,6.6|
2,2,6.8|
];
constraint_x6_x2=[
0,0,9|
0,1,9.2|
0,2,0.53|
1,0,0.55|
1,1,7.4|
1,2,1.5|
2,0,8.2|
2,1,8.3|
2,2,2.9|
];
constraint_x6_x3=[
0,0,5.2|
0,1,1|
0,2,1.9|
1,0,2.3|
1,1,5.2|
1,2,7|
2,0,1.2|
2,1,5.8|
2,2,6.1|
];
constraint_x6_x4=[
0,0,3.3|
0,1,0.54|
0,2,2.5|
1,0,1.8|
1,1,5.9|
1,2,7.9|
2,0,4.5|
2,1,8.2|
2,2,3.9|
];
constraint_x6_x5=[
0,0,8.6|
0,1,1.2|
0,2,0.15|
1,0,1.9|
1,1,2|
1,2,1.7|
2,0,9.8|
2,1,4.6|
2,2,7.3|
];
constraint_x7_x2=[
0,0,1.6|
0,1,5.6|
0,2,9.1|
1,0,2.9|
1,1,9.4|
1,2,5.5|
2,0,2.1|
2,1,2.2|
2,2,4.6|
];
constraint_x7_x4=[
0,0,5.1|
0,1,8.9|
0,2,2.1|
1,0,9.1|
1,1,4.2|
1,2,6|
2,0,9.3|
2,1,6.4|
2,2,4.5|
];
constraint_x7_x6=[
0,0,4.4|
0,1,5.2|
0,2,2.1|
1,0,5|
1,1,2.8|
1,2,0.84|
2,0,2.4|
2,1,1.8|
2,2,9.3|
];
constraint_x8_x1=[
0,0,2|
0,1,9.1|
0,2,4.7|
1,0,0.48|
1,1,5.1|
1,2,6.2|
2,0,6.1|
2,1,9.4|
2,2,4.5|
];
constraint_x8_x3=[
0,0,4.8|
0,1,0.16|
0,2,1.5|
1,0,3.9|
1,1,0.43|
1,2,4.4|
2,0,2.1|
2,1,4.7|
2,2,1.1|
];
constraint_x8_x4=[
0,0,6.8|
0,1,8.5|
0,2,7.4|
1,0,2.2|
1,1,1.2|
1,2,6.5|
2,0,1.4|
2,1,9.6|
2,2,1.6|
];
constraint_x8_x5=[
0,0,10|
0,1,0.8|
0,2,5.9|
1,0,0.57|
1,1,9.5|
1,2,1.9|
2,0,7.9|
2,1,8.9|
2,2,1.1|
];
constraint_x8_x6=[
0,0,2.6|
0,1,9.5|
0,2,3.8|
1,0,2.5|
1,1,5.3|
1,2,4.6|
2,0,2.7|
2,1,1.6|
2,2,9.1|
];
constraint_x8_x7=[
0,0,6.1|
0,1,3.2|
0,2,9.1|
1,0,3.3|
1,1,7.2|
1,2,0.12|
2,0,6.2|
2,1,3|
2,2,7.1|
];
constraint_x9_x1=[
0,0,9.2|
0,1,0.015|
0,2,3.4|
1,0,0.38|
1,1,4.4|
1,2,9.8|
2,0,7.6|
2,1,0.83|
2,2,0.55|
];
constraint_x9_x3=[
0,0,5.5|
0,1,4.7|
0,2,3|
1,0,8.6|
1,1,5.2|
1,2,1.4|
2,0,7|
2,1,6.3|
2,2,4.4|
];
constraint_x9_x4=[
0,0,1.2|
0,1,5.4|
0,2,9.8|
1,0,0.46|
1,1,1.9|
1,2,4.3|
2,0,6.5|
2,1,9.8|
2,2,8.8|
];
constraint_x9_x7=[
0,0,6.4|
0,1,0.15|
0,2,6.4|
1,0,9.9|
1,1,2.7|
1,2,3.8|
2,0,4.3|
2,1,0.2|
2,2,1.3|
];
constraint_x10_x6=[
0,0,2.3|
0,1,6.5|
0,2,5.6|
1,0,1.3|
1,1,8.9|
1,2,0.39|
2,0,2.2|
2,1,0.43|
2,2,9.8|
];
constraint_x10_x8=[
0,0,6.1|
0,1,4.3|
0,2,6.8|
1,0,0.92|
1,1,8.8|
1,2,1.6|
2,0,7|
2,1,8.7|
2,2,5.8|
];
constraint_x1_y1=[
0,0,7.2|
0,1,7.7|
0,2,7|
1,0,0.29|
1,1,3.9|
1,2,6.6|
2,0,9.8|
2,1,8.4|
2,2,6.1|
];
constraint_x2_y2=[
0,0,7.7|
0,1,6.4|
0,2,8.4|
1,0,9|
1,1,5.2|
1,2,7.5|
2,0,8.6|
2,1,9.9|
2,2,6.4|
];
constraint_x3_y3=[
0,0,3|
0,1,9.6|
0,2,0.17|
1,0,3.1|
1,1,8.2|
1,2,7.9|
2,0,1.2|
2,1,0.085|
2,2,9.8|
];
constraint_x4_y4=[
0,0,8.5|
0,1,3.6|
0,2,0.27|
1,0,2.1|
1,1,0.42|
1,2,8.8|
2,0,9.6|
2,1,8.1|
2,2,1.2|
];
constraint_x5_y5=[
0,0,9.7|
0,1,7.8|
0,2,8.1|
1,0,6.6|
1,1,6.7|
1,2,5.9|
2,0,0.86|
2,1,1.3|
2,2,3.6|
];
initial_distribution_y1=[0.032,0.77,0.2];
initial_distribution_y2=[0.21,0.26,0.53];
initial_distribution_y3=[0.0096,0.19,0.8];
initial_distribution_y4=[0.34,0.26,0.4];
initial_distribution_y5=[0.75,0.2,0.059];
transition_y1=[
0.066,0.41,0.53|
0.29,0.31,0.4|
0.17,0.53,0.3|
];
transition_y2=[
0.31,0.33,0.36|
0.26,0.38,0.36|
0.36,0.57,0.074|
];
transition_y3=[
0.065,0.52,0.42|
0.42,0.4,0.18|
0.12,0.24,0.64|
];
transition_y4=[
0.43,0.49,0.081|
0.23,0.26,0.51|
0.25,0.033,0.72|
];
transition_y5=[
0.46,0.21,0.33|
0.2,0.56,0.24|
0.41,0.31,0.29|
];
